k = 86;
b = 43;
AtomicConstraints =  [|
12, 1|
	12, 11|
	13, 1|
	13, 11|
	13, 23|
	14, 23|
	14, 30|
	14, 31|
	15, 23|
	15, 30|
	15, 31|
	15, 32|
	16, 30|
	16, 31|
	16, 32|
	16, 33|
	17, 31|
	17, 32|
	17, 33|
	17, 34|
	18, 2|
	18, 32|
	18, 33|
	18, 34|
	19, 2|
	19, 3|
	19, 33|
	19, 34|
	20, 2|
	20, 3|
	20, 4|
	20, 34|
	21, 2|
	21, 3|
	21, 4|
	21, 5|
	22, 3|
	22, 4|
	22, 5|
	22, 6|
	24, 4|
	24, 5|
	24, 6|
	24, 7|
	25, 5|
	25, 6|
	25, 7|
	25, 8|
	26, 6|
	26, 7|
	26, 8|
	27, 7|
	27, 8|
	27, 9|
	28, 9|
	28, 10|
	29, 9|
	29, 10|
	57, 74|
	57, 66|
	57, 73|
	58, 74|
	58, 66|
	58, 73|
	59, 74|
	59, 73|
	35, 71|
	36, 71|
	36, 72|
	37, 71|
	37, 72|
	37, 52|
	47, 74|
	47, 71|
	47, 72|
	47, 52|
	47, 53|
	47, 58|
	47, 59|
	47, 35|
	47, 36|
	47, 37|
	47, 73|
	48, 74|
	48, 71|
	48, 72|
	48, 52|
	48, 53|
	48, 59|
	48, 35|
	48, 36|
	48, 37|
	78, 71|
	78, 72|
	78, 52|
	78, 53|
	78, 35|
	78, 36|
	78, 37|
	79, 71|
	79, 72|
	79, 52|
	79, 53|
	79, 35|
	79, 36|
	79, 37|
	80, 71|
	80, 72|
	80, 52|
	80, 53|
	80, 36|
	80, 37|
	38, 71|
	38, 72|
	38, 52|
	38, 53|
	38, 37|
	39, 72|
	39, 52|
	39, 53|
	40, 52|
	40, 53|
	63, 57|
	63, 74|
	63, 71|
	63, 72|
	63, 52|
	63, 53|
	63, 58|
	63, 59|
	63, 35|
	63, 36|
	63, 37|
	63, 66|
	63, 73|
	63, 47|
	63, 45|
	63, 46|
	64, 57|
	64, 74|
	64, 71|
	64, 72|
	64, 52|
	64, 53|
	64, 58|
	64, 59|
	64, 35|
	64, 36|
	64, 37|
	64, 66|
	64, 73|
	64, 47|
	64, 48|
	64, 45|
	64, 46|
	65, 74|
	65, 71|
	65, 72|
	65, 52|
	65, 53|
	65, 58|
	65, 59|
	65, 35|
	65, 36|
	65, 37|
	65, 73|
	65, 47|
	65, 48|
	65, 78|
	65, 46|
	67, 74|
	67, 71|
	67, 72|
	67, 52|
	67, 53|
	67, 59|
	67, 35|
	67, 36|
	67, 37|
	67, 47|
	67, 48|
	67, 78|
	67, 79|
	45, 57|
	45, 74|
	45, 71|
	45, 72|
	45, 52|
	45, 53|
	45, 58|
	45, 59|
	45, 35|
	45, 36|
	45, 37|
	45, 66|
	45, 73|
	46, 57|
	46, 74|
	46, 71|
	46, 72|
	46, 52|
	46, 53|
	46, 58|
	46, 59|
	46, 35|
	46, 36|
	46, 37|
	46, 66|
	46, 73|
	51, 74|
	51, 71|
	51, 72|
	51, 52|
	51, 53|
	51, 59|
	51, 35|
	51, 36|
	51, 37|
	51, 47|
	51, 48|
	51, 78|
	51, 79|
	51, 80|
	51, 38|
	51, 39|
	51, 40|
	51, 64|
	51, 65|
	51, 67|
	51, 46|
	81, 72|
	81, 52|
	81, 53|
	81, 37|
	81, 80|
	81, 38|
	81, 39|
	81, 40|
	82, 52|
	82, 53|
	82, 38|
	82, 39|
	82, 40|
	83, 53|
	83, 39|
	83, 40|
	68, 57|
	68, 74|
	68, 71|
	68, 72|
	68, 52|
	68, 53|
	68, 58|
	68, 59|
	68, 35|
	68, 36|
	68, 37|
	68, 66|
	68, 73|
	68, 63|
	68, 47|
	68, 48|
	68, 78|
	68, 79|
	68, 80|
	68, 38|
	68, 39|
	68, 40|
	68, 64|
	68, 65|
	68, 67|
	68, 45|
	68, 46|
	68, 51|
	68, 49|
	68, 50|
	69, 74|
	69, 71|
	69, 72|
	69, 52|
	69, 53|
	69, 58|
	69, 59|
	69, 35|
	69, 36|
	69, 37|
	69, 73|
	69, 63|
	69, 47|
	69, 48|
	69, 78|
	69, 79|
	69, 80|
	69, 38|
	69, 39|
	69, 40|
	69, 64|
	69, 65|
	69, 67|
	69, 45|
	69, 46|
	69, 51|
	69, 49|
	69, 50|
	70, 74|
	70, 71|
	70, 72|
	70, 52|
	70, 53|
	70, 59|
	70, 35|
	70, 36|
	70, 37|
	70, 47|
	70, 48|
	70, 78|
	70, 79|
	70, 80|
	70, 38|
	70, 39|
	70, 40|
	70, 64|
	70, 65|
	70, 67|
	70, 46|
	70, 51|
	70, 50|
	41, 71|
	41, 72|
	41, 52|
	41, 53|
	41, 35|
	41, 36|
	41, 37|
	41, 48|
	41, 78|
	41, 79|
	41, 80|
	41, 38|
	41, 39|
	41, 40|
	41, 67|
	42, 71|
	42, 72|
	42, 52|
	42, 53|
	42, 35|
	42, 36|
	42, 37|
	42, 78|
	42, 79|
	42, 80|
	42, 38|
	42, 39|
	42, 40|
	42, 81|
	43, 71|
	43, 72|
	43, 52|
	43, 53|
	43, 36|
	43, 37|
	43, 79|
	43, 80|
	43, 38|
	43, 39|
	43, 40|
	43, 81|
	43, 82|
	49, 57|
	49, 74|
	49, 71|
	49, 72|
	49, 52|
	49, 53|
	49, 58|
	49, 59|
	49, 35|
	49, 36|
	49, 37|
	49, 66|
	49, 73|
	49, 63|
	49, 47|
	49, 48|
	49, 78|
	49, 79|
	49, 80|
	49, 38|
	49, 39|
	49, 40|
	49, 64|
	49, 65|
	49, 67|
	49, 45|
	49, 46|
	50, 74|
	50, 71|
	50, 72|
	50, 52|
	50, 53|
	50, 58|
	50, 59|
	50, 35|
	50, 36|
	50, 37|
	50, 73|
	50, 63|
	50, 47|
	50, 48|
	50, 78|
	50, 79|
	50, 80|
	50, 38|
	50, 39|
	50, 40|
	50, 64|
	50, 65|
	50, 67|
	50, 45|
	50, 46|
	77, 71|
	77, 72|
	77, 52|
	77, 53|
	77, 35|
	77, 36|
	77, 37|
	77, 47|
	77, 48|
	77, 78|
	77, 79|
	77, 80|
	77, 38|
	77, 39|
	77, 40|
	77, 65|
	77, 67|
	77, 51|
	77, 81|
	77, 82|
	77, 83|
	77, 69|
	77, 70|
	77, 41|
	77, 42|
	77, 43|
	77, 50|
	84, 71|
	84, 72|
	84, 52|
	84, 53|
	84, 35|
	84, 36|
	84, 37|
	84, 48|
	84, 78|
	84, 79|
	84, 80|
	84, 38|
	84, 39|
	84, 40|
	84, 67|
	84, 51|
	84, 81|
	84, 82|
	84, 83|
	84, 70|
	84, 41|
	84, 42|
	84, 43|
	85, 71|
	85, 72|
	85, 52|
	85, 53|
	85, 35|
	85, 36|
	85, 37|
	85, 78|
	85, 79|
	85, 80|
	85, 38|
	85, 39|
	85, 40|
	85, 81|
	85, 82|
	85, 83|
	85, 41|
	85, 42|
	85, 43|
	86, 71|
	86, 72|
	86, 52|
	86, 53|
	86, 35|
	86, 36|
	86, 37|
	86, 78|
	86, 79|
	86, 80|
	86, 38|
	86, 39|
	86, 40|
	86, 81|
	86, 82|
	86, 83|
	86, 41|
	86, 42|
	86, 43|
	56, 71|
	56, 72|
	56, 52|
	56, 53|
	56, 36|
	56, 37|
	56, 79|
	56, 80|
	56, 38|
	56, 39|
	56, 40|
	56, 81|
	56, 82|
	56, 83|
	56, 42|
	56, 43|
	55, 72|
	55, 52|
	55, 53|
	55, 37|
	55, 80|
	55, 38|
	55, 39|
	55, 40|
	55, 81|
	55, 82|
	55, 83|
	55, 43|
	44, 52|
	44, 53|
	44, 38|
	44, 39|
	44, 40|
	44, 81|
	44, 82|
	44, 83|
	54, 53|
	54, 39|
	54, 40|
	54, 82|
	54, 83|
	60, 74|
	60, 71|
	60, 72|
	60, 52|
	60, 53|
	60, 58|
	60, 59|
	60, 35|
	60, 36|
	60, 37|
	60, 73|
	60, 63|
	60, 47|
	60, 48|
	60, 78|
	60, 79|
	60, 80|
	60, 38|
	60, 39|
	60, 40|
	60, 64|
	60, 65|
	60, 67|
	60, 45|
	60, 46|
	60, 68|
	60, 51|
	60, 81|
	60, 82|
	60, 83|
	60, 69|
	60, 70|
	60, 41|
	60, 42|
	60, 43|
	60, 49|
	60, 50|
	60, 77|
	60, 75|
	60, 76|
	61, 74|
	61, 71|
	61, 72|
	61, 52|
	61, 53|
	61, 59|
	61, 35|
	61, 36|
	61, 37|
	61, 47|
	61, 48|
	61, 78|
	61, 79|
	61, 80|
	61, 38|
	61, 39|
	61, 40|
	61, 64|
	61, 65|
	61, 67|
	61, 46|
	61, 68|
	61, 51|
	61, 81|
	61, 82|
	61, 83|
	61, 69|
	61, 70|
	61, 41|
	61, 42|
	61, 43|
	61, 49|
	61, 50|
	61, 77|
	61, 84|
	61, 75|
	61, 76|
	62, 71|
	62, 72|
	62, 52|
	62, 53|
	62, 35|
	62, 36|
	62, 37|
	62, 47|
	62, 48|
	62, 78|
	62, 79|
	62, 80|
	62, 38|
	62, 39|
	62, 40|
	62, 65|
	62, 67|
	62, 51|
	62, 81|
	62, 82|
	62, 83|
	62, 69|
	62, 70|
	62, 41|
	62, 42|
	62, 43|
	62, 50|
	62, 77|
	62, 84|
	62, 85|
	62, 76|
	75, 74|
	75, 71|
	75, 72|
	75, 52|
	75, 53|
	75, 58|
	75, 59|
	75, 35|
	75, 36|
	75, 37|
	75, 73|
	75, 63|
	75, 47|
	75, 48|
	75, 78|
	75, 79|
	75, 80|
	75, 38|
	75, 39|
	75, 40|
	75, 64|
	75, 65|
	75, 67|
	75, 45|
	75, 46|
	75, 68|
	75, 51|
	75, 81|
	75, 82|
	75, 83|
	75, 69|
	75, 70|
	75, 41|
	75, 42|
	75, 43|
	75, 49|
	75, 50|
	76, 74|
	76, 71|
	76, 72|
	76, 52|
	76, 53|
	76, 59|
	76, 35|
	76, 36|
	76, 37|
	76, 47|
	76, 48|
	76, 78|
	76, 79|
	76, 80|
	76, 38|
	76, 39|
	76, 40|
	76, 64|
	76, 65|
	76, 67|
	76, 46|
	76, 68|
	76, 51|
	76, 81|
	76, 82|
	76, 83|
	76, 69|
	76, 70|
	76, 41|
	76, 42|
	76, 43|
	76, 49|
	76, 50|];
DisjunctiveConstraints =  [|2, 34, 2, 3|
	3, 2, 3, 4|
	4, 3, 4, 5|
	5, 4, 5, 6|
	6, 5, 6, 7|
	7, 6, 7, 8|
	8, 7, 8, 9|
	9, 8, 9, 10|
	13, 12, 13, 14|
	11, 1, 11, 23|
	14, 13, 14, 15|
	15, 14, 15, 16|
	16, 15, 16, 17|
	17, 16, 17, 18|
	18, 17, 18, 19|
	19, 18, 19, 20|
	20, 19, 20, 21|
	21, 20, 21, 22|
	22, 21, 22, 24|
	24, 22, 24, 25|
	25, 24, 25, 26|
	26, 25, 26, 27|
	27, 26, 27, 28|
	28, 27, 28, 29|
	23, 11, 23, 30|
	30, 23, 30, 31|
	31, 30, 31, 32|
	32, 31, 32, 33|
	33, 32, 33, 34|
	34, 33, 34, 2|
	72, 71, 72, 52|
	52, 72, 52, 53|
	58, 57, 58, 59|
	59, 58, 59, 35|
	35, 59, 35, 36|
	36, 35, 36, 37|
	73, 66, 73, 74|
	47, 16, 47, 59|
	47, 31, 47, 74|
	47, 58, 15, 47|
	47, 73, 30, 47|
	47, 46, 47, 48|
	48, 74, 31, 48|
	48, 59, 16, 48|
	48, 47, 48, 78|
	78, 48, 78, 79|
	79, 28, 79, 71|
	79, 35, 78, 79|
	79, 78, 79, 80|
	80, 28, 80, 71|
	80, 29, 80, 72|
	80, 36, 79, 80|
	80, 79, 80, 38|
	38, 9, 38, 52|
	38, 29, 38, 72|
	38, 71, 28, 38|
	38, 37, 80, 38|
	38, 80, 38, 39|
	39, 9, 39, 52|
	39, 72, 29, 39|
	39, 53, 39, 10|
	39, 38, 39, 40|
	40, 52, 9, 40|
	40, 53, 40, 10|
	63, 14, 63, 57|
	63, 15, 63, 58|
	63, 23, 63, 66|
	63, 30, 63, 73|
	64, 15, 64, 58|
	64, 16, 64, 59|
	64, 30, 64, 73|
	64, 31, 64, 74|
	64, 57, 14, 64|
	64, 66, 23, 64|
	64, 63, 64, 65|
	65, 16, 65, 59|
	65, 31, 65, 74|
	65, 58, 15, 65|
	65, 66, 23, 65|
	65, 73, 30, 65|
	65, 64, 65, 67|
	67, 74, 31, 67|
	67, 58, 15, 67|
	67, 59, 16, 67|
	67, 73, 30, 67|
	45, 14, 45, 57|
	45, 15, 45, 58|
	45, 23, 45, 66|
	45, 30, 45, 73|
	46, 15, 46, 58|
	46, 16, 46, 59|
	46, 30, 46, 73|
	46, 31, 46, 74|
	46, 57, 14, 46|
	46, 66, 23, 46|
	46, 45, 46, 47|
	51, 4, 51, 47|
	51, 5, 51, 48|
	51, 22, 51, 65|
	51, 24, 51, 67|
	51, 57, 14, 51|
	51, 66, 23, 51|
	51, 64, 21, 51|
	51, 45, 2, 51|
	51, 46, 3, 51|
	81, 9, 81, 52|
	81, 35, 78, 81|
	81, 36, 79, 81|
	81, 80, 37, 81|
	82, 71, 28, 82|
	82, 53, 82, 10|
	82, 36, 79, 82|
	82, 37, 80, 82|
	82, 38, 81, 82|
	82, 81, 82, 83|
	83, 71, 28, 83|
	83, 72, 29, 83|
	83, 37, 80, 83|
	83, 39, 82, 83|
	68, 2, 68, 45|
	68, 3, 68, 46|
	68, 15, 68, 58|
	68, 20, 68, 63|
	68, 21, 68, 64|
	68, 30, 68, 73|
	69, 3, 69, 46|
	69, 4, 69, 47|
	69, 16, 69, 59|
	69, 21, 69, 64|
	69, 22, 69, 65|
	69, 31, 69, 74|
	69, 63, 20, 69|
	69, 45, 2, 69|
	69, 68, 69, 70|
	70, 4, 70, 47|
	70, 5, 70, 48|
	70, 22, 70, 65|
	70, 24, 70, 67|
	70, 57, 14, 70|
	70, 63, 20, 70|
	70, 64, 21, 70|
	70, 45, 2, 70|
	70, 46, 3, 70|
	70, 69, 70, 41|
	41, 74, 31, 41|
	41, 58, 15, 41|
	41, 59, 16, 41|
	41, 35, 41, 78|
	41, 73, 30, 41|
	41, 47, 4, 41|
	41, 48, 5, 41|
	41, 67, 24, 41|
	41, 70, 41, 42|
	42, 28, 42, 71|
	42, 74, 31, 42|
	42, 59, 16, 42|
	42, 36, 42, 79|
	42, 48, 5, 42|
	42, 78, 35, 42|
	42, 41, 42, 43|
	43, 29, 43, 72|
	43, 35, 78, 43|
	43, 37, 43, 80|
	43, 78, 35, 43|
	43, 79, 36, 43|
	49, 2, 49, 45|
	49, 3, 49, 46|
	49, 15, 49, 58|
	49, 20, 49, 63|
	49, 21, 49, 64|
	49, 30, 49, 73|
	50, 3, 50, 46|
	50, 4, 50, 47|
	50, 16, 50, 59|
	50, 21, 50, 64|
	50, 22, 50, 65|
	50, 31, 50, 74|
	50, 63, 20, 50|
	50, 45, 2, 50|
	50, 49, 50, 51|
	77, 5, 77, 48|
	77, 24, 77, 67|
	77, 27, 77, 70|
	77, 63, 20, 77|
	77, 51, 77, 8|
	77, 69, 26, 77|
	77, 49, 6, 77|
	77, 50, 7, 77|
	77, 76, 77, 84|
	84, 63, 20, 84|
	84, 64, 21, 84|
	84, 45, 2, 84|
	84, 46, 3, 84|
	84, 51, 8, 84|
	84, 70, 27, 84|
	84, 50, 7, 84|
	84, 77, 84, 85|
	85, 28, 85, 71|
	85, 57, 14, 85|
	85, 35, 85, 78|
	85, 66, 23, 85|
	85, 47, 4, 85|
	85, 64, 21, 85|
	85, 65, 22, 85|
	85, 46, 3, 85|
	85, 51, 8, 85|
	85, 41, 85, 84|
	85, 84, 85, 86|
	86, 28, 86, 71|
	86, 29, 86, 72|
	86, 58, 15, 86|
	86, 36, 86, 79|
	86, 73, 30, 86|
	86, 47, 4, 86|
	86, 48, 5, 86|
	86, 65, 22, 86|
	86, 67, 24, 86|
	86, 41, 84, 86|
	86, 42, 86, 85|
	86, 85, 86, 56|
	56, 9, 56, 52|
	56, 29, 56, 72|
	56, 74, 31, 56|
	56, 59, 16, 56|
	56, 37, 56, 80|
	56, 48, 5, 56|
	56, 78, 35, 56|
	56, 67, 24, 56|
	56, 42, 85, 56|
	56, 43, 56, 86|
	56, 86, 56, 55|
	55, 9, 55, 52|
	55, 53, 55, 10|
	55, 78, 35, 55|
	55, 79, 36, 55|
	55, 38, 55, 81|
	55, 43, 86, 55|
	55, 56, 55, 44|
	44, 53, 44, 10|
	44, 35, 78, 44|
	44, 79, 36, 44|
	44, 80, 37, 44|
	44, 39, 44, 82|
	44, 81, 38, 44|
	44, 55, 44, 54|
	54, 36, 79, 54|
	54, 37, 80, 54|
	54, 80, 37, 54|
	54, 38, 81, 54|
	54, 40, 54, 83|
	54, 82, 39, 54|
	60, 3, 60, 46|
	60, 15, 60, 58|
	60, 16, 60, 59|
	60, 21, 60, 64|
	60, 25, 60, 68|
	60, 26, 60, 69|
	60, 30, 60, 73|
	60, 31, 60, 74|
	60, 49, 60, 6|
	60, 50, 60, 7|
	61, 4, 61, 47|
	61, 16, 61, 59|
	61, 22, 61, 65|
	61, 26, 61, 69|
	61, 27, 61, 70|
	61, 51, 61, 8|
	61, 68, 25, 61|
	61, 49, 6, 61|
	61, 50, 61, 7|
	61, 60, 61, 62|
	62, 5, 62, 48|
	62, 24, 62, 67|
	62, 27, 62, 70|
	62, 51, 62, 8|
	62, 68, 25, 62|
	62, 69, 26, 62|
	62, 49, 6, 62|
	62, 50, 7, 62|
	75, 3, 75, 46|
	75, 15, 75, 58|
	75, 16, 75, 59|
	75, 21, 75, 64|
	75, 25, 75, 68|
	75, 26, 75, 69|
	75, 30, 75, 73|
	75, 31, 75, 74|
	75, 49, 75, 6|
	75, 50, 75, 7|
	76, 4, 76, 47|
	76, 16, 76, 59|
	76, 22, 76, 65|
	76, 26, 76, 69|
	76, 27, 76, 70|
	76, 31, 76, 74|
	76, 51, 76, 8|
	76, 68, 25, 76|
	76, 49, 6, 76|
	76, 50, 76, 7|
	76, 75, 76, 77|];
SoftAtomicConstraints =  [|
34, 2|
2, 3|
3, 4|
4, 5|
5, 6|
6, 7|
7, 8|
8, 9|
9, 10|
1, 11|
12, 13|
13, 14|
14, 15|
15, 16|
16, 17|
17, 18|
18, 19|
19, 20|
20, 21|
21, 22|
11, 23|
22, 24|
24, 25|
25, 26|
26, 27|
27, 28|
28, 29|
23, 30|
30, 31|
31, 32|
32, 33|
33, 34|
59, 35|
35, 36|
36, 37|
80, 38|
38, 39|
39, 40|
70, 41|
41, 42|
42, 43|
55, 44|
45, 46|
46, 47|
47, 48|
49, 50|
50, 51|
72, 52|
52, 53|
44, 54|
56, 55|
86, 56|
57, 58|
58, 59|
60, 61|
61, 62|
63, 64|
64, 65|
65, 67|
68, 69|
69, 70|
74, 71|
71, 72|
66, 73|
73, 74|
75, 76|
76, 77|
48, 78|
78, 79|
79, 80|
51, 81|
81, 82|
82, 83|
77, 84|
84, 85|
85, 86|];
DirectSuccessors =  [];
